* Problem:    SC205-semistandard
* Class:      LP
* Rows:       204
* Columns:    316
* Non-zeros:  664
* Format:     Fixed MPS
*
NAME          SC205-se
ROWS
 N  R0000000
 E  R0000001
 E  R0000002
 E  R0000003
 E  R0000004
 E  R0000005
 E  R0000006
 E  R0000007
 E  R0000008
 E  R0000009
 E  R0000010
 E  R0000011
 E  R0000012
 E  R0000013
 E  R0000014
 E  R0000015
 E  R0000016
 E  R0000017
 E  R0000018
 E  R0000019
 E  R0000020
 E  R0000021
 E  R0000022
 E  R0000023
 E  R0000024
 E  R0000025
 E  R0000026
 E  R0000027
 E  R0000028
 E  R0000029
 E  R0000030
 E  R0000031
 E  R0000032
 E  R0000033
 E  R0000034
 E  R0000035
 E  R0000036
 E  R0000037
 E  R0000038
 E  R0000039
 E  R0000040
 E  R0000041
 E  R0000042
 E  R0000043
 E  R0000044
 E  R0000045
 E  R0000046
 E  R0000047
 E  R0000048
 E  R0000049
 E  R0000050
 E  R0000051
 E  R0000052
 E  R0000053
 E  R0000054
 E  R0000055
 E  R0000056
 E  R0000057
 E  R0000058
 E  R0000059
 E  R0000060
 E  R0000061
 E  R0000062
 E  R0000063
 E  R0000064
 E  R0000065
 E  R0000066
 E  R0000067
 E  R0000068
 E  R0000069
 E  R0000070
 E  R0000071
 E  R0000072
 E  R0000073
 E  R0000074
 E  R0000075
 E  R0000076
 E  R0000077
 E  R0000078
 E  R0000079
 E  R0000080
 E  R0000081
 E  R0000082
 E  R0000083
 E  R0000084
 E  R0000085
 E  R0000086
 E  R0000087
 E  R0000088
 E  R0000089
 E  R0000090
 E  R0000091
 E  R0000092
 E  R0000093
 E  R0000094
 E  R0000095
 E  R0000096
 E  R0000097
 E  R0000098
 E  R0000099
 E  R0000100
 E  R0000101
 E  R0000102
 E  R0000103
 E  R0000104
 E  R0000105
 E  R0000106
 E  R0000107
 E  R0000108
 E  R0000109
 E  R0000110
 E  R0000111
 E  R0000112
 E  R0000113
 E  R0000114
 E  R0000115
 E  R0000116
 E  R0000117
 E  R0000118
 E  R0000119
 E  R0000120
 E  R0000121
 E  R0000122
 E  R0000123
 E  R0000124
 E  R0000125
 E  R0000126
 E  R0000127
 E  R0000128
 E  R0000129
 E  R0000130
 E  R0000131
 E  R0000132
 E  R0000133
 E  R0000134
 E  R0000135
 E  R0000136
 E  R0000137
 E  R0000138
 E  R0000139
 E  R0000140
 E  R0000141
 E  R0000142
 E  R0000143
 E  R0000144
 E  R0000145
 E  R0000146
 E  R0000147
 E  R0000148
 E  R0000149
 E  R0000150
 E  R0000151
 E  R0000152
 E  R0000153
 E  R0000154
 E  R0000155
 E  R0000156
 E  R0000157
 E  R0000158
 E  R0000159
 E  R0000160
 E  R0000161
 E  R0000162
 E  R0000163
 E  R0000164
 E  R0000165
 E  R0000166
 E  R0000167
 E  R0000168
 E  R0000169
 E  R0000170
 E  R0000171
 E  R0000172
 E  R0000173
 E  R0000174
 E  R0000175
 E  R0000176
 E  R0000177
 E  R0000178
 E  R0000179
 E  R0000180
 E  R0000181
 E  R0000182
 E  R0000183
 E  R0000184
 E  R0000185
 E  R0000186
 E  R0000187
 E  R0000188
 E  R0000189
 E  R0000190
 E  R0000191
 E  R0000192
 E  R0000193
 E  R0000194
 E  R0000195
 E  R0000196
 E  R0000197
 E  R0000198
 E  R0000199
 E  R0000200
 E  R0000201
 E  R0000202
 E  R0000203
 E  R0000204
COLUMNS
    c0        R0000093             1   R0000092             2
    c0        R0000002            -1
    c1        R0000093             2   R0000092             1
    c1        R0000003            -1
    c2        R0000093           1.5   R0000092           1.5
    c2        R0000004            -1
    c3        R0000000            -1   R0000005           1.1
    c3        R0000001             1
    c4        R0000099             1   R0000006             1
    c4        R0000001            -1
    c5        R0000094            -1   R0000007            -1
    c5        R0000002             1
    c6        R0000095            -1   R0000008            -1
    c6        R0000003             1
    c7        R0000096            -1   R0000009            -1
    c7        R0000004             1
    c8        R0000097            -1   R0000094             1
    c9        R0000098            -1   R0000095             1
    c10       R0000099            -1   R0000096             1
    c11       R0000098             1   R0000097             2
    c11       R0000007            -1
    c12       R0000098             2   R0000097             1
    c12       R0000008            -1
    c13       R0000098           1.5   R0000097           1.5
    c13       R0000009            -1
    c14       R0000010           1.1   R0000006             1
    c14       R0000005            -1
    c15       R0000105             1   R0000011             1
    c15       R0000006            -1
    c16       R0000100            -1   R0000012            -1
    c16       R0000007             1
    c17       R0000101            -1   R0000013            -1
    c17       R0000008             1
    c18       R0000102            -1   R0000014            -1
    c18       R0000009             1
    c19       R0000103            -1   R0000100             1
    c20       R0000104            -1   R0000101             1
    c21       R0000105            -1   R0000102             1
    c22       R0000104             1   R0000103             2
    c22       R0000012            -1
    c23       R0000104             2   R0000103             1
    c23       R0000013            -1
    c24       R0000104           1.5   R0000103           1.5
    c24       R0000014            -1
    c25       R0000015           1.1   R0000011             1
    c25       R0000010            -1
    c26       R0000111             1   R0000016             1
    c26       R0000011            -1
    c27       R0000106            -1   R0000017            -1
    c27       R0000012             1
    c28       R0000107            -1   R0000018            -1
    c28       R0000013             1
    c29       R0000108            -1   R0000019            -1
    c29       R0000014             1
    c30       R0000109            -1   R0000106             1
    c31       R0000110            -1   R0000107             1
    c32       R0000111            -1   R0000108             1
    c33       R0000110             1   R0000109             2
    c33       R0000017            -1
    c34       R0000110             2   R0000109             1
    c34       R0000018            -1
    c35       R0000110           1.5   R0000109           1.5
    c35       R0000019            -1
    c36       R0000020           1.1   R0000016             1
    c36       R0000015            -1
    c37       R0000117             1   R0000021             1
    c37       R0000016            -1
    c38       R0000112            -1   R0000022            -1
    c38       R0000017             1
    c39       R0000113            -1   R0000023            -1
    c39       R0000018             1
    c40       R0000114            -1   R0000024            -1
    c40       R0000019             1
    c41       R0000115            -1   R0000112             1
    c42       R0000116            -1   R0000113             1
    c43       R0000117            -1   R0000114             1
    c44       R0000116             1   R0000115             2
    c44       R0000022            -1
    c45       R0000116             2   R0000115             1
    c45       R0000023            -1
    c46       R0000116           1.5   R0000115           1.5
    c46       R0000024            -1
    c47       R0000025           1.1   R0000021             1
    c47       R0000020            -1
    c48       R0000123             1   R0000026             1
    c48       R0000021            -1
    c49       R0000118            -1   R0000027            -1
    c49       R0000022             1
    c50       R0000119            -1   R0000028            -1
    c50       R0000023             1
    c51       R0000120            -1   R0000029            -1
    c51       R0000024             1
    c52       R0000121            -1   R0000118             1
    c53       R0000122            -1   R0000119             1
    c54       R0000123            -1   R0000120             1
    c55       R0000122             1   R0000121             2
    c55       R0000027            -1
    c56       R0000122             2   R0000121             1
    c56       R0000028            -1
    c57       R0000122           1.5   R0000121           1.5
    c57       R0000029            -1
    c58       R0000030           1.1   R0000026             1
    c58       R0000025            -1
    c59       R0000129             1   R0000031             1
    c59       R0000026            -1
    c60       R0000124            -1   R0000032            -1
    c60       R0000027             1
    c61       R0000125            -1   R0000033            -1
    c61       R0000028             1
    c62       R0000126            -1   R0000034            -1
    c62       R0000029             1
    c63       R0000127            -1   R0000124             1
    c64       R0000128            -1   R0000125             1
    c65       R0000129            -1   R0000126             1
    c66       R0000128             1   R0000127             2
    c66       R0000032            -1
    c67       R0000128             2   R0000127             1
    c67       R0000033            -1
    c68       R0000128           1.5   R0000127           1.5
    c68       R0000034            -1
    c69       R0000035           1.1   R0000031             1
    c69       R0000030            -1
    c70       R0000135             1   R0000036             1
    c70       R0000031            -1
    c71       R0000130            -1   R0000037            -1
    c71       R0000032             1
    c72       R0000131            -1   R0000038            -1
    c72       R0000033             1
    c73       R0000132            -1   R0000039            -1
    c73       R0000034             1
    c74       R0000133            -1   R0000130             1
    c75       R0000134            -1   R0000131             1
    c76       R0000135            -1   R0000132             1
    c77       R0000134             1   R0000133             2
    c77       R0000037            -1
    c78       R0000134             2   R0000133             1
    c78       R0000038            -1
    c79       R0000134           1.5   R0000133           1.5
    c79       R0000039            -1
    c80       R0000040           1.1   R0000036             1
    c80       R0000035            -1
    c81       R0000141             1   R0000041             1
    c81       R0000036            -1
    c82       R0000136            -1   R0000042            -1
    c82       R0000037             1
    c83       R0000137            -1   R0000043            -1
    c83       R0000038             1
    c84       R0000138            -1   R0000044            -1
    c84       R0000039             1
    c85       R0000139            -1   R0000136             1
    c86       R0000140            -1   R0000137             1
    c87       R0000141            -1   R0000138             1
    c88       R0000140             1   R0000139             2
    c88       R0000042            -1
    c89       R0000140             2   R0000139             1
    c89       R0000043            -1
    c90       R0000140           1.5   R0000139           1.5
    c90       R0000044            -1
    c91       R0000046           1.1   R0000041             1
    c91       R0000040            -1
    c92       R0000147             1   R0000047             1
    c92       R0000041            -1
    c93       R0000142            -1   R0000048            -1
    c93       R0000042             1
    c94       R0000143            -1   R0000049            -1
    c94       R0000043             1
    c95       R0000144            -1   R0000050            -1
    c95       R0000044             1
    c96       R0000145            -1   R0000142             1
    c97       R0000146            -1   R0000143             1
    c98       R0000147            -1   R0000144             1
    c99       R0000146             1   R0000145             2
    c99       R0000048            -1
    c100      R0000146             2   R0000145             1
    c100      R0000049            -1
    c101      R0000146           1.5   R0000145           1.5
    c101      R0000050            -1
    c102      R0000045             1
    c103      R0000051           1.1   R0000047             1
    c103      R0000046            -1
    c104      R0000153             1   R0000052             1
    c104      R0000047            -1
    c105      R0000148            -1   R0000053            -1
    c105      R0000048             1
    c106      R0000149            -1   R0000054            -1
    c106      R0000049             1
    c107      R0000150            -1   R0000055            -1
    c107      R0000050             1
    c108      R0000151            -1   R0000148             1
    c109      R0000152            -1   R0000149             1
    c110      R0000153            -1   R0000150             1
    c111      R0000152             1   R0000151             2
    c111      R0000053            -1
    c112      R0000152             2   R0000151             1
    c112      R0000054            -1
    c113      R0000152           1.5   R0000151           1.5
    c113      R0000055            -1
    c114      R0000056           1.1   R0000052             1
    c114      R0000051            -1
    c115      R0000159             1   R0000057             1
    c115      R0000052            -1
    c116      R0000154            -1   R0000058            -1
    c116      R0000053             1
    c117      R0000155            -1   R0000059            -1
    c117      R0000054             1
    c118      R0000156            -1   R0000060            -1
    c118      R0000055             1
    c119      R0000157            -1   R0000154             1
    c120      R0000158            -1   R0000155             1
    c121      R0000159            -1   R0000156             1
    c122      R0000158             1   R0000157             2
    c122      R0000058            -1
    c123      R0000158             2   R0000157             1
    c123      R0000059            -1
    c124      R0000158           1.5   R0000157           1.5
    c124      R0000060            -1
    c125      R0000061           1.1   R0000057             1
    c125      R0000056            -1
    c126      R0000165             1   R0000062             1
    c126      R0000057            -1
    c127      R0000160            -1   R0000063            -1
    c127      R0000058             1
    c128      R0000161            -1   R0000064            -1
    c128      R0000059             1
    c129      R0000162            -1   R0000065            -1
    c129      R0000060             1
    c130      R0000163            -1   R0000160             1
    c131      R0000164            -1   R0000161             1
    c132      R0000165            -1   R0000162             1
    c133      R0000164             1   R0000163             2
    c133      R0000063            -1
    c134      R0000164             2   R0000163             1
    c134      R0000064            -1
    c135      R0000164           1.5   R0000163           1.5
    c135      R0000065            -1
    c136      R0000066           1.1   R0000062             1
    c136      R0000061            -1
    c137      R0000171             1   R0000067             1
    c137      R0000062            -1
    c138      R0000166            -1   R0000068            -1
    c138      R0000063             1
    c139      R0000167            -1   R0000069            -1
    c139      R0000064             1
    c140      R0000168            -1   R0000070            -1
    c140      R0000065             1
    c141      R0000169            -1   R0000166             1
    c142      R0000170            -1   R0000167             1
    c143      R0000171            -1   R0000168             1
    c144      R0000170             1   R0000169             2
    c144      R0000068            -1
    c145      R0000170             2   R0000169             1
    c145      R0000069            -1
    c146      R0000170           1.5   R0000169           1.5
    c146      R0000070            -1
    c147      R0000071           1.1   R0000067             1
    c147      R0000066            -1
    c148      R0000177             1   R0000072             1
    c148      R0000067            -1
    c149      R0000172            -1   R0000073            -1
    c149      R0000068             1
    c150      R0000173            -1   R0000074            -1
    c150      R0000069             1
    c151      R0000174            -1   R0000075            -1
    c151      R0000070             1
    c152      R0000175            -1   R0000172             1
    c153      R0000176            -1   R0000173             1
    c154      R0000177            -1   R0000174             1
    c155      R0000176             1   R0000175             2
    c155      R0000073            -1
    c156      R0000176             2   R0000175             1
    c156      R0000074            -1
    c157      R0000176           1.5   R0000175           1.5
    c157      R0000075            -1
    c158      R0000076           1.1   R0000072             1
    c158      R0000071            -1
    c159      R0000183             1   R0000077             1
    c159      R0000072            -1
    c160      R0000178            -1   R0000078            -1
    c160      R0000073             1
    c161      R0000179            -1   R0000079            -1
    c161      R0000074             1
    c162      R0000180            -1   R0000080            -1
    c162      R0000075             1
    c163      R0000181            -1   R0000178             1
    c164      R0000182            -1   R0000179             1
    c165      R0000183            -1   R0000180             1
    c166      R0000182             1   R0000181             2
    c166      R0000078            -1
    c167      R0000182             2   R0000181             1
    c167      R0000079            -1
    c168      R0000182           1.5   R0000181           1.5
    c168      R0000080            -1
    c169      R0000081           1.1   R0000077             1
    c169      R0000076            -1
    c170      R0000189             1   R0000082             1
    c170      R0000077            -1
    c171      R0000184            -1   R0000083            -1
    c171      R0000078             1
    c172      R0000185            -1   R0000084            -1
    c172      R0000079             1
    c173      R0000186            -1   R0000085            -1
    c173      R0000080             1
    c174      R0000187            -1   R0000184             1
    c175      R0000188            -1   R0000185             1
    c176      R0000189            -1   R0000186             1
    c177      R0000188             1   R0000187             2
    c177      R0000083            -1
    c178      R0000188             2   R0000187             1
    c178      R0000084            -1
    c179      R0000188           1.5   R0000187           1.5
    c179      R0000085            -1
    c180      R0000086           1.1   R0000082             1
    c180      R0000081            -1
    c181      R0000195             1   R0000087             1
    c181      R0000082            -1
    c182      R0000190            -1   R0000088            -1
    c182      R0000083             1
    c183      R0000191            -1   R0000089            -1
    c183      R0000084             1
    c184      R0000192            -1   R0000090            -1
    c184      R0000085             1
    c185      R0000193            -1   R0000190             1
    c186      R0000194            -1   R0000191             1
    c187      R0000195            -1   R0000192             1
    c188      R0000194             1   R0000193             2
    c188      R0000088            -1
    c189      R0000194             2   R0000193             1
    c189      R0000089            -1
    c190      R0000194           1.5   R0000193           1.5
    c190      R0000090            -1
    c191      R0000091           1.1   R0000087             1
    c191      R0000086            -1
    c192      R0000201             1   R0000087            -1
    c193      R0000196            -1   R0000088             1
    c194      R0000197            -1   R0000089             1
    c195      R0000198            -1   R0000090             1
    c196      R0000199            -1   R0000196             1
    c197      R0000200            -1   R0000197             1
    c198      R0000201            -1   R0000198             1
    c199      R0000203           0.1   R0000202          -0.8
    c199      R0000200             1   R0000199             2
    c200      R0000203          -0.8   R0000202           0.1
    c200      R0000200             2   R0000199             1
    c201      R0000204            -1   R0000203          0.15
    c201      R0000202          0.15   R0000200           1.5
    c201      R0000199           1.5
    c202      R0000204             1   R0000091            -1
    c203      R0000092             1
    c204      R0000093             1
    c205      R0000094             1
    c206      R0000095             1
    c207      R0000096             1
    c208      R0000097             1
    c209      R0000098             1
    c210      R0000099             1
    c211      R0000100             1
    c212      R0000101             1
    c213      R0000102             1
    c214      R0000103             1
    c215      R0000104             1
    c216      R0000105             1
    c217      R0000106             1
    c218      R0000107             1
    c219      R0000108             1
    c220      R0000109             1
    c221      R0000110             1
    c222      R0000111             1
    c223      R0000112             1
    c224      R0000113             1
    c225      R0000114             1
    c226      R0000115             1
    c227      R0000116             1
    c228      R0000117             1
    c229      R0000118             1
    c230      R0000119             1
    c231      R0000120             1
    c232      R0000121             1
    c233      R0000122             1
    c234      R0000123             1
    c235      R0000124             1
    c236      R0000125             1
    c237      R0000126             1
    c238      R0000127             1
    c239      R0000128             1
    c240      R0000129             1
    c241      R0000130             1
    c242      R0000131             1
    c243      R0000132             1
    c244      R0000133             1
    c245      R0000134             1
    c246      R0000135             1
    c247      R0000136             1
    c248      R0000137             1
    c249      R0000138             1
    c250      R0000139             1
    c251      R0000140             1
    c252      R0000141             1
    c253      R0000142             1
    c254      R0000143             1
    c255      R0000144             1
    c256      R0000145             1
    c257      R0000146             1
    c258      R0000147             1
    c259      R0000148             1
    c260      R0000149             1
    c261      R0000150             1
    c262      R0000151             1
    c263      R0000152             1
    c264      R0000153             1
    c265      R0000154             1
    c266      R0000155             1
    c267      R0000156             1
    c268      R0000157             1
    c269      R0000158             1
    c270      R0000159             1
    c271      R0000160             1
    c272      R0000161             1
    c273      R0000162             1
    c274      R0000163             1
    c275      R0000164             1
    c276      R0000165             1
    c277      R0000166             1
    c278      R0000167             1
    c279      R0000168             1
    c280      R0000169             1
    c281      R0000170             1
    c282      R0000171             1
    c283      R0000172             1
    c284      R0000173             1
    c285      R0000174             1
    c286      R0000175             1
    c287      R0000176             1
    c288      R0000177             1
    c289      R0000178             1
    c290      R0000179             1
    c291      R0000180             1
    c292      R0000181             1
    c293      R0000182             1
    c294      R0000183             1
    c295      R0000184             1
    c296      R0000185             1
    c297      R0000186             1
    c298      R0000187             1
    c299      R0000188             1
    c300      R0000189             1
    c301      R0000190             1
    c302      R0000191             1
    c303      R0000192             1
    c304      R0000193             1
    c305      R0000194             1
    c306      R0000195             1
    c307      R0000196             1
    c308      R0000197             1
    c309      R0000198             1
    c310      R0000199             1
    c311      R0000200             1
    c312      R0000201             1
    c313      R0000202             1
    c314      R0000203             1
    c315      R0000204             1
RHS
    RHS1      R0000092           200   R0000093           100
    RHS1      R0000097           200   R0000098           100
    RHS1      R0000103           200   R0000104           100
    RHS1      R0000109           200   R0000110           100
    RHS1      R0000115           200   R0000116           100
    RHS1      R0000121           200   R0000122           100
    RHS1      R0000127           200   R0000128           100
    RHS1      R0000133           200   R0000134           100
    RHS1      R0000139           200   R0000140           100
    RHS1      R0000145           200   R0000146           100
    RHS1      R0000151           200   R0000152           100
    RHS1      R0000157           200   R0000158           100
    RHS1      R0000163           200   R0000164           100
    RHS1      R0000169           200   R0000170           100
    RHS1      R0000175           200   R0000176           100
    RHS1      R0000181           200   R0000182           100
    RHS1      R0000187           200   R0000188           100
    RHS1      R0000193           200   R0000194           100
    RHS1      R0000199           200   R0000200           100
ENDATA
